Problem:    
Rows:       260
Columns:    89 (72 integer, 72 binary)
Non-zeros:  974
Status:     INTEGER OPTIMAL
Objective:  value = 43.668761 (MINimum)

   No.   Row name        Activity     Lower bound   Upper bound
------ ------------    ------------- ------------- -------------
     1 r.5                   43.6688             0               
     2 r.6                   19.6549      -983.021               
     3 r.7                   1043.67             0               
     4 r.8                  -980.345      -983.665               
     5 r.9                   1043.67             0               
     6 r.10                 -969.236      -983.133               
     7 r.11                  43.6688             0               
     8 r.12                   31.846      -983.824               
     9 r.13                  1043.67             0               
    10 r.14                  -986.92      -999.136               
    11 r.15                  43.6688             0               
    12 r.16                 -994.085      -995.541               
    13 r.17                  1043.67             0               
    14 r.18                 -988.192      -998.168               
    15 r.19                  43.6688             0               
    16 r.20                   31.846      -993.195               
    17 r.21                  1043.67             0               
    18 r.22                 -990.433      -991.889               
    19 r.23                  43.6688             0               
    20 r.24                  20.3285      -991.492               
    21 r.25                  1043.67             0               
    22 r.26                 -999.362      -999.362               
    23 r.27                  43.6688             0               
    24 r.28                  2.80276      -998.513               
    25 r.29                  43.6688             0               
    26 r.30                  43.6688      -974.135               
    27 r.31                  1043.67             0               
    28 r.32                 -956.331      -987.504               
    29 r.33                  43.6688             0               
    30 r.34                  43.6688      -974.267               
    31 r.35                  1043.67             0               
    32 r.36                 -968.828      -988.482               
    33 r.37                        1             1             = 
    34 r.38                        1             1             = 
    35 r.39                        1             1             = 
    36 r.40                        1             1             = 
    37 r.41                        1             1             = 
    38 r.42                        1             1             = 
    39 r.43                        1             1             = 
    40 r.44                        1             1             = 
    41 r.45                     1001             2               
    42 r.46                    -1001         -1001               
    43 r.47                  2011.11      -983.133               
    44 r.48                     1001             2               
    45 r.49                    -1001         -1001               
    46 r.50                  2012.19      -983.824               
    47 r.51                     1001             2               
    48 r.52                    -1001         -1001               
    49 r.53                  1993.43      -999.136               
    50 r.54                     1001             2               
    51 r.55                    -1001         -1001               
    52 r.56                   986.26      -995.541               
    53 r.57                     1001             2               
    54 r.58                    -1001         -1001               
    55 r.59                  1992.15      -998.168               
    56 r.60                     1001             2               
    57 r.61                    -1001         -1001               
    58 r.62                  2012.19      -993.195               
    59 r.63                     1001             2               
    60 r.64                    -1001         -1001               
    61 r.65                  1989.91      -991.889               
    62 r.66                     1001             2               
    63 r.67                    -1001         -1001               
    64 r.68                  2000.67      -991.492               
    65 r.69                  18.1993      -983.021               
    66 r.70                 -981.801      -983.665               
    67 r.71                  18.1993      -983.021               
    68 r.72                 -981.801      -983.665               
    69 r.73                  24.0139      -974.135               
    70 r.74                 -975.986      -987.504               
    71 r.75                  24.0139      -974.135               
    72 r.76                 -975.986      -987.504               
    73 r.77                  24.0139      -974.267               
    74 r.78                 -988.482      -988.482               
    75 r.79                  24.0139      -974.267               
    76 r.80                 -988.482      -988.482               
    77 r.81                     1001             2               
    78 r.82                    -1001         -1001               
    79 r.83                  1988.48       16.9794               
    80 r.84                     1001             2               
    81 r.85                    -1001         -1001               
    82 r.86                  1988.48       16.3345               
    83 r.87                        2             2               
    84 r.88                       -2         -1001               
    85 r.89                 -18.0923      -999.136               
    86 r.90                     1000             2               
    87 r.91                    -1000         -1001               
    88 r.92                  974.742      -995.541               
    89 r.93                        2             2               
    90 r.94                       -2         -1001               
    91 r.95                 -19.3646      -998.168               
    92 r.96                     1000             2               
    93 r.97                    -1000         -1001               
    94 r.98                  2000.67      -993.195               
    95 r.99                        2             2               
    96 r.100                      -2         -1001               
    97 r.101                -21.6055      -991.889               
    98 r.102                    1000             2               
    99 r.103                   -1000         -1001               
   100 r.104                 1989.16      -991.492               
   101 r.105                -970.692      -983.133               
   102 r.106                 30.3904      -983.824               
   103 r.107                -970.692      -983.133               
   104 r.108                 30.3904      -983.824               
   105 r.109                 12.4964      -974.135               
   106 r.110                -987.504      -987.504               
   107 r.111                 12.4964      -974.135               
   108 r.112                -987.504      -987.504               
   109 r.113                    1001             2               
   110 r.114                   -1001         -1001               
   111 r.115                  2012.5      -974.267               
   112 r.116                    1001             2               
   113 r.117                   -1001         -1001               
   114 r.118                    2000      -988.482               
   115 r.119                    1001             2               
   116 r.120                   -1001         -1001               
   117 r.121                 2005.76       16.9794               
   118 r.122                    1001             2               
   119 r.123                   -1001         -1001               
   120 r.124                 3015.09       16.3345               
   121 r.125                       2             2               
   122 r.126                      -2         -1001               
   123 r.127                 16.8665       16.8665               
   124 r.128                    1000             2               
   125 r.129                   -1000         -1001               
   126 r.130                 3027.28       16.1758               
   127 r.131                       2             2               
   128 r.132                      -2         -1001               
   129 r.133                -2.08947      -998.168               
   130 r.134                    1000             2               
   131 r.135                   -1000         -1001               
   132 r.136                 3027.28      -993.195               
   133 r.137                       2             2               
   134 r.138                      -2         -1001               
   135 r.139                 -4.3304      -991.889               
   136 r.140                    1000             2               
   137 r.141                   -1000         -1001               
   138 r.142                 3015.76      -991.492               
   139 r.143                -988.376      -999.136               
   140 r.144                -995.541      -995.541               
   141 r.145                -988.376      -999.136               
   142 r.146                -995.541      -995.541               
   143 r.147                 29.7715      -974.135               
   144 r.148                -970.228      -987.504               
   145 r.149                  1039.1      -974.135               
   146 r.150                 39.1014      -987.504               
   147 r.151                 29.7715      -974.267               
   148 r.152                -982.725      -988.482               
   149 r.153                  1039.1      -974.267               
   150 r.154                  26.605      -988.482               
   151 r.155                    1001             2               
   152 r.156                   -1001         -1001               
   153 r.157                 2007.44       16.9794               
   154 r.158                    1001             2               
   155 r.159                   -1001         -1001               
   156 r.160                 1988.48       16.3345               
   157 r.161                       2             2               
   158 r.162                      -2         -1001               
   159 r.163                 18.5474       16.8665               
   160 r.164                    1000             2               
   161 r.165                   -1000         -1001               
   162 r.166                 2000.67       16.1758               
   163 r.167                       2             2               
   164 r.168                      -2         -1001               
   165 r.169                  0.8637        0.8637               
   166 r.170                    1000             2               
   167 r.171                   -1000         -1001               
   168 r.172                 974.742         4.459               
   169 r.173                       2             2               
   170 r.174                      -2         -1001               
   171 r.175                -2.64952      -991.889               
   172 r.176                    1000             2               
   173 r.177                   -1000         -1001               
   174 r.178                 1989.16      -991.492               
   175 r.179                -989.648      -998.168               
   176 r.180                 30.3904      -993.195               
   177 r.181                -989.648      -998.168               
   178 r.182                 30.3904      -993.195               
   179 r.183                 31.4524      -974.135               
   180 r.184                -968.548      -987.504               
   181 r.185                 12.4964      -974.135               
   182 r.186                -987.504      -987.504               
   183 r.187                    1001             2               
   184 r.188                   -1001         -1001               
   185 r.189                 2031.45      -974.267               
   186 r.190                    1001             2               
   187 r.191                   -1001         -1001               
   188 r.192                    2000      -988.482               
   189 r.193                    1001             2               
   190 r.194                   -1001         -1001               
   191 r.195                 2009.68       16.9794               
   192 r.196                    1001             2               
   193 r.197                   -1001         -1001               
   194 r.198                    2000       16.3345               
   195 r.199                       2             2               
   196 r.200                      -2         -1001               
   197 r.201                 20.7883       16.8665               
   198 r.202                    1000             2               
   199 r.203                   -1000         -1001               
   200 r.204                 2012.19       16.1758               
   201 r.205                       2             2               
   202 r.206                      -2         -1001               
   203 r.207                 3.10462        0.8637               
   204 r.208                    1000             2               
   205 r.209                   -1000         -1001               
   206 r.210                  986.26         4.459               
   207 r.211                       2             2               
   208 r.212                      -2         -1001               
   209 r.213                 1.83233       1.83233               
   210 r.214                    1000             2               
   211 r.215                   -1000         -1001               
   212 r.216                 2012.19        6.8052               
   213 r.217                -991.889      -991.889               
   214 r.218                 18.8729      -991.492               
   215 r.219                -991.889      -991.889               
   216 r.220                 18.8729      -991.492               
   217 r.221                    1001             2               
   218 r.222                   -1001         -1001               
   219 r.223                 2033.69      -974.135               
   220 r.224                    1001             2               
   221 r.225                   -1001         -1001               
   222 r.226                 2024.01      -987.504               
   223 r.227                 33.6933      -974.267               
   224 r.228                -978.803      -988.482               
   225 r.229                 24.0139      -974.267               
   226 r.230                -988.482      -988.482               
   227 r.231                 42.2132      -974.135               
   228 r.232                -957.787      -987.504               
   229 r.233                 42.2132      -974.135               
   230 r.234                -957.787      -987.504               
   231 r.235                    1001             2               
   232 r.236                   -1001         -1001               
   233 r.237                  1965.9       8.11127               
   234 r.238                    1001             2               
   235 r.239                   -1001         -1001               
   236 r.240                 1976.66        8.5082               
   237 r.241                    1000             2               
   238 r.242                   -1000         -1001               
   239 r.243                    2000      -974.267               
   240 r.244                       2             2               
   241 r.245                      -2         -1001               
   242 r.246                -12.4964      -988.482               
   243 r.247                    1001             2               
   244 r.248                   -1001         -1001               
   245 r.249                  1987.1       16.8665               
   246 r.250                    1001             2               
   247 r.251                   -1001         -1001               
   248 r.252                 2000.67       16.1758               
   249 r.253                    1001             2               
   250 r.254                   -1001         -1001               
   251 r.255                 1968.14       1.83233               
   252 r.256                    1001             2               
   253 r.257                   -1001         -1001               
   254 r.258                 2000.67        6.8052               
   255 r.259                    1000             2               
   256 r.260                   -1000         -1001               
   257 r.261                    2000        25.865               
   258 r.262                       2             2               
   259 r.263                      -2         -1001               
   260 r.264                 12.4964       12.4964               

   No. Column name       Activity     Lower bound   Upper bound
------ ------------    ------------- ------------- -------------
     1 tt                    43.6688             0               
     2 s_1_1        *              0             0             1 
     3 t_1_1                 24.0139             0               
     4 s_1_8        *              0             0             1 
     5 s_1_7        *              0             0             1 
     6 s_2_1        *              1             0             1 
     7 t_2_1                 24.0139             0               
     8 s_2_8        *              1             0             1 
     9 s_2_7        *              1             0             1 
    10 s_1_2        *              1             0             1 
    11 t_1_2                 12.4964             0               
    12 s_2_2        *              0             0             1 
    13 t_2_2                 12.4964             0               
    14 s_1_3        *              1             0             1 
    15 t_1_3                 29.7715             0               
    16 s_2_3        *              0             0             1 
    17 t_2_3                  1039.1             0               
    18 s_1_4        *              1             0             1 
    19 t_1_4                 31.4524             0               
    20 s_2_4        *              0             0             1 
    21 t_2_4                 12.4964             0               
    22 s_1_5        *              1             0             1 
    23 t_1_5                 33.6933             0               
    24 s_2_5        *              0             0             1 
    25 t_2_5                 24.0139             0               
    26 s_1_6        *              1             0             1 
    27 t_1_6                 42.2132             0               
    28 s_2_6        *              0             0             1 
    29 t_2_6                 42.2132             0               
    30 t_1_7                       0             0               
    31 t_2_7                       0             0               
    32 t_1_8                       0             0               
    33 t_2_8                 12.4964             0               
    34 r_1_1_2      *              1             0             1 
    35 u_1_1_2      *              0             0             1 
    36 r_2_1_2      *              1             0             1 
    37 u_2_1_2      *              0             0             1 
    38 r_1_1_3      *              1             0             1 
    39 u_1_1_3      *              0             0             1 
    40 r_2_1_3      *              1             0             1 
    41 u_2_1_3      *              0             0             1 
    42 r_1_1_4      *              1             0             1 
    43 u_1_1_4      *              0             0             1 
    44 r_2_1_4      *              1             0             1 
    45 u_2_1_4      *              0             0             1 
    46 r_1_1_5      *              1             0             1 
    47 u_1_1_5      *              0             0             1 
    48 r_2_1_5      *              1             0             1 
    49 u_2_1_5      *              0             0             1 
    50 r_1_2_3      *              0             0             1 
    51 u_1_2_3      *              0             0             1 
    52 r_2_2_3      *              1             0             1 
    53 u_2_2_3      *              0             0             1 
    54 r_1_2_4      *              0             0             1 
    55 u_1_2_4      *              0             0             1 
    56 r_2_2_4      *              1             0             1 
    57 u_2_2_4      *              0             0             1 
    58 r_1_2_5      *              0             0             1 
    59 u_1_2_5      *              0             0             1 
    60 r_2_2_5      *              1             0             1 
    61 u_2_2_5      *              0             0             1 
    62 r_1_2_8      *              1             0             1 
    63 u_1_2_8      *              0             0             1 
    64 r_2_2_8      *              1             0             1 
    65 u_2_2_8      *              0             0             1 
    66 r_1_3_4      *              0             0             1 
    67 u_1_3_4      *              0             0             1 
    68 r_2_3_4      *              1             0             1 
    69 u_2_3_4      *              0             0             1 
    70 r_1_3_5      *              0             0             1 
    71 u_1_3_5      *              0             0             1 
    72 r_2_3_5      *              1             0             1 
    73 u_2_3_5      *              0             0             1 
    74 r_1_4_5      *              0             0             1 
    75 u_1_4_5      *              0             0             1 
    76 r_2_4_5      *              1             0             1 
    77 u_2_4_5      *              0             0             1 
    78 r_1_4_8      *              1             0             1 
    79 u_1_4_8      *              0             0             1 
    80 r_2_4_8      *              1             0             1 
    81 u_2_4_8      *              0             0             1 
    82 r_1_5_7      *              1             0             1 
    83 u_1_5_7      *              0             0             1 
    84 r_2_5_7      *              1             0             1 
    85 u_2_5_7      *              0             0             1 
    86 r_1_7_8      *              1             0             1 
    87 u_1_7_8      *              0             0             1 
    88 r_2_7_8      *              0             0             1 
    89 u_2_7_8      *              0             0             1 

Integer feasibility conditions:

KKT.PE: max.abs.err = 4.55e-13 on row 22
        max.rel.err = 2.18e-16 on row 22
        High quality

KKT.PB: max.abs.err = 1.14e-13 on row 140
        max.rel.err = 5.49e-16 on row 209
        High quality

End of output
